experiment/data/lkh-res/Vrp-Set-X-n120/Vrp-Set-X-n120-lkh/0.lkh1.vrp
NAME : 0
COMMENT : CVRP Instance
TYPE : CVRP
DIMENSION : 120
EDGE_WEIGHT_TYPE : EUC_2D
CAPACITY : 21
NODE_COORD_SECTION
1	0	0
2	92700	31800
3	31900	47500
4	47100	28100
5	89400	61500
6	71200	83200
7	67700	21000
8	33600	96700
9	49000	36000
10	36700	68500
11	15300	16900
12	79900	6300
13	24700	45500
14	49200	58500
15	13100	70100
16	30900	72100
17	21000	25600
18	51100	75300
19	44700	79600
20	39400	85600
21	13100	1300
22	18100	42500
23	89200	58500
24	16100	65100
25	96400	36500
26	8200	35300
27	70600	84200
28	79300	5300
29	36400	84100
30	12600	30600
31	8600	47700
32	5100	27700
33	19200	36000
34	5200	56800
35	68200	4500
36	77800	30000
37	1000	73700
38	92800	43800
39	9500	24000
40	39100	36800
41	58600	17000
42	64500	73100
43	38100	39600
44	38700	49100
45	38800	75300
46	42900	27600
47	54700	98900
48	84000	94500
49	8800	96900
50	33100	42100
51	5500	13200
52	90400	77100
53	6300	19000
54	73100	52800
55	32000	8400
56	30800	27600
57	89100	18200
58	83600	47300
59	20900	74100
60	86400	53300
61	85200	60000
62	18000	15000
63	54400	14000
64	95600	88100
65	43200	48700
66	12900	96800
67	59700	96200
68	5100	42300
69	82700	60500
70	77600	61900
71	35400	29700
72	31100	12900
73	55200	10600
74	2400	31800
75	14800	94400
76	50200	86900
77	39600	49200
78	81500	50000
79	42500	33800
80	17800	51100
81	16800	27400
82	77500	60300
83	48100	46500
84	28100	77700
85	21600	21100
86	78400	74000
87	12700	99200
88	54400	11700
89	9200	17000
90	84600	75500
91	61400	32600
92	18000	37200
93	72000	25200
94	26200	29100
95	17100	18600
96	86800	61300
97	29100	11900
98	42700	97400
99	48100	55700
100	40300	64500
101	81900	50200
102	91500	91900
103	58100	8500
104	52700	74300
105	95300	89300
106	95500	91200
107	26900	92400
108	21600	8400
109	60100	95200
110	44100	43900
111	17000	94900
112	61400	9200
113	43900	21200
114	41300	50900
115	54500	33600
116	5000	80600
117	16600	8600
118	65800	87000
119	12200	51100
120	17800	17000
DEMAND_SECTION
1	0
2	1
3	1
4	1
5	1
6	1
7	1
8	1
9	1
10	1
11	1
12	1
13	1
14	1
15	1
16	1
17	1
18	1
19	1
20	1
21	1
22	1
23	1
24	1
25	1
26	1
27	1
28	1
29	1
30	1
31	1
32	1
33	1
34	1
35	1
36	1
37	1
38	1
39	1
40	1
41	1
42	1
43	1
44	1
45	1
46	1
47	1
48	1
49	1
50	1
51	1
52	1
53	1
54	1
55	1
56	1
57	1
58	1
59	1
60	1
61	1
62	1
63	1
64	1
65	1
66	1
67	1
68	1
69	1
70	1
71	1
72	1
73	1
74	1
75	1
76	1
77	1
78	1
79	1
80	1
81	1
82	1
83	1
84	1
85	1
86	1
87	1
88	1
89	1
90	1
91	1
92	1
93	1
94	1
95	1
96	1
97	1
98	1
99	1
100	1
101	1
102	1
103	1
104	1
105	1
106	1
107	1
108	1
109	1
110	1
111	1
112	1
113	1
114	1
115	1
116	1
117	1
118	1
119	1
120	1
DEPOT_SECTION
1
-1
EOF
