experiment/data/lkh-res/Vrp-Set-X-n120/Vrp-Set-X-n120-lkh/0.lkh1.log
PARAMETER_FILE = baseline_results/cvrp_lkh/Vrp-Set-X-n120/Vrp-Set-X-n120-lkh/0.lkh1.par
Reading PROBLEM_FILE: "baseline_results/cvrp_lkh/Vrp-Set-X-n120/Vrp-Set-X-n120-lkh/0.lkh1.vrp" ... done
ASCENT_CANDIDATES = 50
BACKBONE_TRIALS = 0
BACKTRACKING = NO
# BWTSP =
# CANDIDATE_FILE =
CANDIDATE_SET_TYPE = ALPHA
# DISTANCE =
DEPOT = 1
# EDGE_FILE =
EXCESS = 0.00833333
EXTERNAL_SALESMEN = 0
EXTRA_CANDIDATES = 0 
EXTRA_CANDIDATE_SET_TYPE = QUADRANT
GAIN23 = NO
GAIN_CRITERION = YES
INITIAL_PERIOD = 100
INITIAL_STEP_SIZE = 1
INITIAL_TOUR_ALGORITHM = WALK
# INITIAL_TOUR_FILE = 
INITIAL_TOUR_FRACTION = 1.000
# INPUT_TOUR_FILE = 
KICK_TYPE = 4
KICKS = 1
# MAX_BREADTH =
MAKESPAN = NO
MAX_CANDIDATES = 5 
MAX_SWAPS = 0
MAX_TRIALS = 10000
# MERGE_TOUR_FILE =
MOVE_TYPE = 5 SPECIAL
MTSP_MIN_SIZE = 1
MTSP_MAX_SIZE = 119
# MTSP_SOLUTION_FILE = 
# NONSEQUENTIAL_MOVE_TYPE = 5
# OPTIMUM =
OUTPUT_TOUR_FILE = baseline_results/cvrp_lkh/Vrp-Set-X-n120/Vrp-Set-X-n120-lkh/0.lkh1.tour
PATCHING_A = 1 
PATCHING_C = 0 
# PI_FILE = 
POPMUSIC_INITIAL_TOUR = NO
POPMUSIC_MAX_NEIGHBORS = 5
POPMUSIC_SAMPLE_SIZE = 10
POPMUSIC_SOLUTIONS = 50
POPMUSIC_TRIALS = 1
POPULATION_SIZE = 10
PRECISION = 100
PROBLEM_FILE = baseline_results/cvrp_lkh/Vrp-Set-X-n120/Vrp-Set-X-n120-lkh/0.lkh1.vrp
RECOMBINATION = IPT
RESTRICTED_SEARCH = YES
RUNS = 1
SALESMEN = 6
SCALE = 1
SEED = 1234
# SINTEF_SOLUTION_FILE = 
STOP_AT_OPTIMUM = YES
SUBGRADIENT = YES
# SUBPROBLEM_SIZE =
# SUBPROBLEM_TOUR_FILE = 
SUBSEQUENT_MOVE_TYPE = 5 SPECIAL
SUBSEQUENT_PATCHING = YES
# TIME_LIMIT =
# TOTAL_TIME_LIMIT =
# TOUR_FILE = 
TRACE_LEVEL = 1
VEHICLES = 6

Lower bound = 954077.2, Ascent time = 0.03 sec.
Cand.min = 4, Cand.avg = 5.0, Cand.max = 5
Preprocessing time = 0.03 sec.
* 1: Cost = 0_1445910, Time = 0.01 sec. 
Writing OUTPUT_TOUR_FILE: "baseline_results/cvrp_lkh/Vrp-Set-X-n120/Vrp-Set-X-n120-lkh/0.lkh1.tour" ... done
* 3: Cost = 0_1395862, Time = 0.02 sec. 
Writing OUTPUT_TOUR_FILE: "baseline_results/cvrp_lkh/Vrp-Set-X-n120/Vrp-Set-X-n120-lkh/0.lkh1.tour" ... done
* 4: Cost = 0_1393208, Time = 0.03 sec. 
Writing OUTPUT_TOUR_FILE: "baseline_results/cvrp_lkh/Vrp-Set-X-n120/Vrp-Set-X-n120-lkh/0.lkh1.tour" ... done
* 10: Cost = 0_1384866, Time = 0.06 sec. 
Writing OUTPUT_TOUR_FILE: "baseline_results/cvrp_lkh/Vrp-Set-X-n120/Vrp-Set-X-n120-lkh/0.lkh1.tour" ... done
* 19: Cost = 0_1384833, Time = 0.09 sec. 
Writing OUTPUT_TOUR_FILE: "baseline_results/cvrp_lkh/Vrp-Set-X-n120/Vrp-Set-X-n120-lkh/0.lkh1.tour" ... done
* 33: Cost = 0_1382022, Time = 0.15 sec. 
Writing OUTPUT_TOUR_FILE: "baseline_results/cvrp_lkh/Vrp-Set-X-n120/Vrp-Set-X-n120-lkh/0.lkh1.tour" ... done
* 61: Cost = 0_1381214, Time = 0.27 sec. 
Writing OUTPUT_TOUR_FILE: "baseline_results/cvrp_lkh/Vrp-Set-X-n120/Vrp-Set-X-n120-lkh/0.lkh1.tour" ... done
* 80: Cost = 0_1379109, Time = 0.34 sec. 
Writing OUTPUT_TOUR_FILE: "baseline_results/cvrp_lkh/Vrp-Set-X-n120/Vrp-Set-X-n120-lkh/0.lkh1.tour" ... done
* 130: Cost = 0_1373448, Time = 0.51 sec. 
Writing OUTPUT_TOUR_FILE: "baseline_results/cvrp_lkh/Vrp-Set-X-n120/Vrp-Set-X-n120-lkh/0.lkh1.tour" ... done
* 135: Cost = 0_1369495, Time = 0.53 sec. 
Writing OUTPUT_TOUR_FILE: "baseline_results/cvrp_lkh/Vrp-Set-X-n120/Vrp-Set-X-n120-lkh/0.lkh1.tour" ... done
* 136: Cost = 0_1365383, Time = 0.53 sec. 
Writing OUTPUT_TOUR_FILE: "baseline_results/cvrp_lkh/Vrp-Set-X-n120/Vrp-Set-X-n120-lkh/0.lkh1.tour" ... done
* 140: Cost = 0_1362948, Time = 0.58 sec. 
Writing OUTPUT_TOUR_FILE: "baseline_results/cvrp_lkh/Vrp-Set-X-n120/Vrp-Set-X-n120-lkh/0.lkh1.tour" ... done
* 147: Cost = 0_1362615, Time = 0.63 sec. 
Writing OUTPUT_TOUR_FILE: "baseline_results/cvrp_lkh/Vrp-Set-X-n120/Vrp-Set-X-n120-lkh/0.lkh1.tour" ... done
* 148: Cost = 0_1354415, Time = 0.64 sec. 
Writing OUTPUT_TOUR_FILE: "baseline_results/cvrp_lkh/Vrp-Set-X-n120/Vrp-Set-X-n120-lkh/0.lkh1.tour" ... done
* 168: Cost = 0_1352574, Time = 0.70 sec. 
Writing OUTPUT_TOUR_FILE: "baseline_results/cvrp_lkh/Vrp-Set-X-n120/Vrp-Set-X-n120-lkh/0.lkh1.tour" ... done
* 207: Cost = 0_1350705, Time = 0.83 sec. 
Writing OUTPUT_TOUR_FILE: "baseline_results/cvrp_lkh/Vrp-Set-X-n120/Vrp-Set-X-n120-lkh/0.lkh1.tour" ... done
* 227: Cost = 0_1349354, Time = 0.87 sec. 
Writing OUTPUT_TOUR_FILE: "baseline_results/cvrp_lkh/Vrp-Set-X-n120/Vrp-Set-X-n120-lkh/0.lkh1.tour" ... done
* 306: Cost = 0_1341145, Time = 1.09 sec. 
Writing OUTPUT_TOUR_FILE: "baseline_results/cvrp_lkh/Vrp-Set-X-n120/Vrp-Set-X-n120-lkh/0.lkh1.tour" ... done
* 309: Cost = 0_1339437, Time = 1.10 sec. 
Writing OUTPUT_TOUR_FILE: "baseline_results/cvrp_lkh/Vrp-Set-X-n120/Vrp-Set-X-n120-lkh/0.lkh1.tour" ... done
* 319: Cost = 0_1339110, Time = 1.13 sec. 
Writing OUTPUT_TOUR_FILE: "baseline_results/cvrp_lkh/Vrp-Set-X-n120/Vrp-Set-X-n120-lkh/0.lkh1.tour" ... done
* 327: Cost = 0_1338860, Time = 1.16 sec. 
Writing OUTPUT_TOUR_FILE: "baseline_results/cvrp_lkh/Vrp-Set-X-n120/Vrp-Set-X-n120-lkh/0.lkh1.tour" ... done
* 366: Cost = 0_1337022, Time = 1.26 sec. 
Writing OUTPUT_TOUR_FILE: "baseline_results/cvrp_lkh/Vrp-Set-X-n120/Vrp-Set-X-n120-lkh/0.lkh1.tour" ... done
* 431: Cost = 0_1335612, Time = 1.41 sec. 
Writing OUTPUT_TOUR_FILE: "baseline_results/cvrp_lkh/Vrp-Set-X-n120/Vrp-Set-X-n120-lkh/0.lkh1.tour" ... done
* 517: Cost = 0_1333581, Time = 1.64 sec. 
Writing OUTPUT_TOUR_FILE: "baseline_results/cvrp_lkh/Vrp-Set-X-n120/Vrp-Set-X-n120-lkh/0.lkh1.tour" ... done
* 1400: Cost = 0_1332990, Time = 3.66 sec. 
Writing OUTPUT_TOUR_FILE: "baseline_results/cvrp_lkh/Vrp-Set-X-n120/Vrp-Set-X-n120-lkh/0.lkh1.tour" ... done
* 1583: Cost = 0_1332941, Time = 4.13 sec. 
Writing OUTPUT_TOUR_FILE: "baseline_results/cvrp_lkh/Vrp-Set-X-n120/Vrp-Set-X-n120-lkh/0.lkh1.tour" ... done
Population:
  1: 0_1332941
Run 1: Cost = 0_1332941, Time = 23.04 sec. 

Successes/Runs = 0/1 
Cost.min = 1332941, Cost.avg = 1332941.00, Cost.max = 1332941
Gap.min = 0.0000%, Gap.avg = 0.0000%, Gap.max = 0.0000%
Penalty.min = 0, Penalty.avg = 0.00, Penalty.max = 0
Trials.min = 10000, Trials.avg = 10000.0, Trials.max = 10000
Time.min = 23.04 sec., Time.avg = 23.04 sec., Time.max = 23.04 sec.
Time.total = 23.07 sec.
  Size.min = 15, Size.max = 21, Penalty = 0
  Cost.min = 123873, Cost.max = 310128, Cost.sum = 1332941
Best CVRP solution:
  Cost = 0_1332941

